# Objective value = 39
WA1n 0
WA1p 0
WA2n 0
WA2p 1
WB1n 0
WB1p 0
WB2n 0
WB2p 1
WC1n 0
WC1p 1
WD1n 0
WD1p 1
WE1n 0
WE1p 2
WE2n 0
WE2p 1
WF1n 3
WF1p 0
WF2n 1
WF2p 0
WG1n 3
WG1p 0
WG2n 1
WG2p 0
WH1n 3
WH1p 0
WH2n 1
WH2p 0
WI1n 3
WI1p 0
WI2n 1
WI2p 0
WJ1n 3
WJ1p 0
WJ2n 1
WJ2p 0
WT1n 0
WT1p 2
WT2n 0
WT2p 1
5 7
a 0
b 1
c 0
d 1
e 1
f 1
g 1
h 1
i 0
j 0
k 0
l 0
m 0
n 0
o 0
p 0
q 0
r 0
s 1
t 1
